50002.19 0
0 66 63 64 65 68 69 70 67 126 127 128 129 130 117 116 80 79 50 49 48 6 7 47 46 45 82 81 115 114 113 112 84 83 44 43 42 8 9 39 40 41 85 86 110 111 131 104 105 91 92 30 35 89 90 106 107 108 109 87 88 36 37 38 10 11 33 34 31 32 12 13 14 15 29 28 93 27 26 25 16 22 23 24 94 95 102 103 100 99 101 96 97 98 18 19 20 21 17 259 185 184 183 182 181 187 186 258 257 256 255 254 253 189 188 180 179 178 177 176 175 190 174 173 172 171 132 170 169 168 192 191 252 251 250 260 249 248 247 194 193 167 166 165 164 163 162 196 195 246 245 244 243 242 241 198 197 161 160 159 158 157 156 200 199 240 239 238 237 236 235 202 201 155 154 153 152 151 150 204 203 234 233 232 231 230 229 206 205 149 148 147 146 145 144 208 207 228 227 226 225 224 223 210 209 143 142 141 140 139 138 212 211 222 221 220 217 214 213 137 136 135 134 133 215 216 218 219 263 262 261 5 53 52 51 78 77 119 118 121 120 76 75 56 55 54 4 3 59 58 57 74 73 123 122 124 125 71 72 60 61 62 2 1